(set-logic QF_LIA)
(set-info :ran/ran2.smt2)
(set-info :smt-lib-version 2.0)
(declare-fun x1 () Int)
(declare-fun x2 () Int)
(declare-fun x3 () Int)
(declare-fun x4 () Int)
(declare-fun x5 () Int)
(assert (<= (+ (* (- 5) x1) (* 3 x2) (* 8 x3) (* 6 x4) (* 9 x5) ) (- 31)))
(assert (<= (+ (* (- 1) x1) (* 3 x2) (* 10 x3) (* 6 x4) (* 5 x5) ) 10))
(assert (<= (+ (* (- 7) x1) (* (- 6) x2) (* 4 x3) (* 10 x4) (* 4 x5) ) 6))
(assert (<= (+ (* (- 9) x1) (* 7 x2) (* 7 x3) (* 10 x4) (* 3 x5) ) (- 20)))
(assert (<= (+ (* (- 5) x1) (* 7 x2) (* 9 x3) (* 10 x4) (* (- 2) x5) ) 10))
(assert (<= (+ (* 7 x1) (* 4 x2) (* (- 1) x3) (* 4 x4) (* (- 3) x5) ) (- 4)))
(assert (<= (+ (* (- 3) x1) (* 6 x2) (* 9 x3) (* (- 4) x4) (* 1 x5) ) (- 10)))
(assert (<= (+ (* (- 9) x1) (* 4 x2) (* 5 x3) (* 6 x4) (* 1 x5) ) (- 35)))
(assert (<= (+ (* (- 2) x1) (* 3 x2) (* (- 8) x3) (* (- 6) x4) (* 0 x5) ) 1))
(assert (<= (+ (* 6 x1) (* 6 x2) (* (- 1) x3) (* 4 x4) (* 5 x5) ) (- 18)))
(assert (<= (+ (* 1 x1) (* 0 x2) (* 0 x3) (* 0 x4) (* 0 x5) ) 35))
(assert (<= (+ (* (- 1) x1) (* 0 x2) (* 0 x3) (* 0 x4) (* 0 x5) ) 35))
(assert (<= (+ (* 0 x1) (* 1 x2) (* 0 x3) (* 0 x4) (* 0 x5) ) 35))
(assert (<= (+ (* 0 x1) (* (- 1) x2) (* 0 x3) (* 0 x4) (* 0 x5) ) 35))
(assert (<= (+ (* 0 x1) (* 0 x2) (* 1 x3) (* 0 x4) (* 0 x5) ) 35))
(assert (<= (+ (* 0 x1) (* 0 x2) (* (- 1) x3) (* 0 x4) (* 0 x5) ) 35))
(assert (<= (+ (* 0 x1) (* 0 x2) (* 0 x3) (* 1 x4) (* 0 x5) ) 35))
(assert (<= (+ (* 0 x1) (* 0 x2) (* 0 x3) (* (- 1) x4) (* 0 x5) ) 35))
(assert (<= (+ (* 0 x1) (* 0 x2) (* 0 x3) (* 0 x4) (* 1 x5) ) 35))
(assert (<= (+ (* 0 x1) (* 0 x2) (* 0 x3) (* 0 x4) (* (- 1) x5) ) 35))
